Route #1: 1 19 14 33 5 35 27 22 1
Route #2: 1 13 3 40 36 10 9 39 17 21 8 41 1
Route #3: 1 7 29 4 12 44 42 32 6 1
Route #4: 1 2 38 20 37 30 15 1
Route #5: 1 26 24 43 16 23 1
Route #6: 1 34 28 45 25 1
Route #7: 1 18 11 31 1
cost 1333
